(synth-fun eq1 ( (x1 Int) (x2 Int) (x3 Int) (x4 Int) (x5 Int) (x6 Int) (x7 Int) (x8 Int) (x9 Int) (x10 Int) (x11 Int) (x12 Int) (x13 Int) (x14 Int) (z Int)) Int ((Start Int (  2 
		x1 x2 x3 x4 x5 x6 x7 x8 x9 x10 
             (+ Start Start)
             (ite StartBool Start Start)))
 (StartBool Bool (           (not StartBool) (or StartBool)       (>= Start Start) (and StartBool StartBool) ))
))
